solution status: optimal solution found
objective value:                                   21
x37                                                 1 	(obj:1)
x40                                                 1 	(obj:1)
x42                                                 1 	(obj:1)
x51                                                 1 	(obj:1)
x52                                                 1 	(obj:1)
x54                                                 1 	(obj:1)
x57                                                 1 	(obj:1)
x58                                                 1 	(obj:1)
x62                                                 1 	(obj:1)
x68                                                 1 	(obj:1)
x69                                                 1 	(obj:1)
x70                                                 1 	(obj:1)
x73                                                 1 	(obj:1)
x74                                                 1 	(obj:1)
x76                                                 1 	(obj:1)
x86                                                 1 	(obj:1)
x88                                                 1 	(obj:1)
x91                                                 1 	(obj:1)
x92                                                 1 	(obj:1)
x94                                                 1 	(obj:1)
x100                                                1 	(obj:1)
one.pinholes[2].hole_out_b_y                        8 	(obj:0)
one.pinholes[2].hole_out_b_z                       20 	(obj:0)
one.thingy.devices[2].thingy.v10_y                   23 	(obj:0)
one.thingy.devices[2].thingy.v10_z                   19 	(obj:0)
one.thingy.devices[1].thingy.v10_y                   23 	(obj:0)
one.thingy.devices[1].thingy.v10_z                   23 	(obj:0)
one.ctrl_a[9].hole_y                               22 	(obj:0)
one.ctrl_a[9].hole_z                               19 	(obj:0)
one.ctrl_a[9].flush_y                              19 	(obj:0)
one.ctrl_a[9].flush_z                              15 	(obj:0)
one.ctrl_a[7].flush_y                              20 	(obj:0)
one.ctrl_a[7].flush_z                              16 	(obj:0)
one.thingy.devices[2].thingy.v11_y                   24 	(obj:0)
one.thingy.devices[2].thingy.v11_z                   20 	(obj:0)
one.pinholes[3].hole_out_b_y                       25 	(obj:0)
one.pinholes[3].hole_out_b_z                       22 	(obj:0)
one.thingy.devices[0].thingy.v11_y                   23 	(obj:0)
one.thingy.devices[0].thingy.v11_z                   22 	(obj:0)
one.pinholes[1].hole_out_b_y                       -6 	(obj:0)
one.pinholes[1].hole_out_b_z                       20 	(obj:0)
one.ctrl_a[8].flush_y                              21 	(obj:0)
one.ctrl_a[8].flush_z                              18 	(obj:0)
one.thingy.devices[3].thingy.v10_y                   22 	(obj:0)
one.thingy.devices[3].thingy.v10_z                   17 	(obj:0)
one.thingy.devices[0].thingy.v10_y                   24 	(obj:0)
one.thingy.devices[0].thingy.v10_z                   22 	(obj:0)
one.pinholes[0].hole_out_b_y                       24 	(obj:0)
one.pinholes[0].hole_out_b_z                       21 	(obj:0)
one.ctrl_a[8].hole_y                               25 	(obj:0)
one.ctrl_a[8].hole_z                               19 	(obj:0)
one.thingy.devices[1].thingy.v11_y                   24 	(obj:0)
one.thingy.devices[1].thingy.v11_z                   23 	(obj:0)
one.thingy.devices[3].thingy.v11_y                   21 	(obj:0)
one.thingy.devices[3].thingy.v11_z                   17 	(obj:0)
one.ctrl_a[7].hole_y                               24 	(obj:0)
one.ctrl_a[7].hole_z                               19 	(obj:0)
